#=======================================================
# FHI-aims file: fe-dislocation.in
# Created using the Atomic Simulation Environment (ASE)
# Wed Oct 20 21:05:09 2021
#=======================================================
lattice_vector 20.0900001525878906 0.0000000000000000 0.0000000000000000 
lattice_vector 0.0000000000000000 17.2199993133544922 0.0000000000000000 
lattice_vector 0.0000000000000000 0.0000000000000000 17.2199993133544922 
atom 2.4349999427795410 1.4349999427795410 1.4349999427795410 Fe
atom 2.4349999427795410 1.4349999427795410 4.3049998283386230 Fe
atom 2.4349999427795410 1.4349999427795410 7.1750001907348633 Fe
atom 1.4349999427795410 1.4349999427795410 10.0450000762939453 Fe
atom 1.4349999427795410 1.4349999427795410 12.9149999618530273 Fe
atom 1.4349999427795410 1.4349999427795410 15.7849998474121094 Fe
atom 2.4349999427795410 4.3049998283386230 1.4349999427795410 Fe
atom 2.4349999427795410 4.3049998283386230 4.3049998283386230 Fe
atom 2.4349999427795410 4.3049998283386230 7.1750001907348633 Fe
atom 1.4349999427795410 4.3049998283386230 10.0450000762939453 Fe
atom 1.4349999427795410 4.3049998283386230 12.9149999618530273 Fe
atom 1.4349999427795410 4.3049998283386230 15.7849998474121094 Fe
atom 2.4349999427795410 7.1750001907348633 1.4349999427795410 Fe
atom 2.4349999427795410 7.1750001907348633 4.3049998283386230 Fe
atom 2.4349999427795410 7.1750001907348633 7.1750001907348633 Fe
atom 1.4349999427795410 7.1750001907348633 10.0450000762939453 Fe
atom 1.4349999427795410 7.1750001907348633 12.9149999618530273 Fe
atom 1.4349999427795410 7.1750001907348633 15.7849998474121094 Fe
atom 2.4349999427795410 10.0450000762939453 1.4349999427795410 Fe
atom 2.4349999427795410 10.0450000762939453 4.3049998283386230 Fe
atom 2.4349999427795410 10.0450000762939453 7.1750001907348633 Fe
atom 1.4349999427795410 10.0450000762939453 10.0450000762939453 Fe
atom 1.4349999427795410 10.0450000762939453 12.9149999618530273 Fe
atom 1.4349999427795410 10.0450000762939453 15.7849998474121094 Fe
atom 2.4349999427795410 12.9149999618530273 1.4349999427795410 Fe
atom 2.4349999427795410 12.9149999618530273 4.3049998283386230 Fe
atom 2.4349999427795410 12.9149999618530273 7.1750001907348633 Fe
atom 1.4349999427795410 12.9149999618530273 10.0450000762939453 Fe
atom 1.4349999427795410 12.9149999618530273 12.9149999618530273 Fe
atom 1.4349999427795410 12.9149999618530273 15.7849998474121094 Fe
atom 2.4349999427795410 15.7849998474121094 1.4349999427795410 Fe
atom 2.4349999427795410 15.7849998474121094 4.3049998283386230 Fe
atom 2.4349999427795410 15.7849998474121094 7.1750001907348633 Fe
atom 1.4349999427795410 15.7849998474121094 10.0450000762939453 Fe
atom 1.4349999427795410 15.7849998474121094 12.9149999618530273 Fe
atom 1.4349999427795410 15.7849998474121094 15.7849998474121094 Fe
atom 5.3049998283386230 1.4349999427795410 1.4349999427795410 Fe
atom 5.3049998283386230 1.4349999427795410 4.3049998283386230 Fe
atom 5.3049998283386230 1.4349999427795410 7.1750001907348633 Fe
atom 4.3049998283386230 1.4349999427795410 10.0450000762939453 Fe
atom 4.3049998283386230 1.4349999427795410 12.9149999618530273 Fe
atom 4.3049998283386230 1.4349999427795410 15.7849998474121094 Fe
atom 5.3049998283386230 4.3049998283386230 1.4349999427795410 Fe
atom 5.3049998283386230 4.3049998283386230 4.3049998283386230 Fe
atom 5.3049998283386230 4.3049998283386230 7.1750001907348633 Fe
atom 4.3049998283386230 4.3049998283386230 10.0450000762939453 Fe
atom 4.3049998283386230 4.3049998283386230 12.9149999618530273 Fe
atom 4.3049998283386230 4.3049998283386230 15.7849998474121094 Fe
atom 5.3049998283386230 7.1750001907348633 1.4349999427795410 Fe
atom 5.3049998283386230 7.1750001907348633 4.3049998283386230 Fe
atom 5.3049998283386230 7.1750001907348633 7.1750001907348633 Fe
atom 4.3049998283386230 7.1750001907348633 10.0450000762939453 Fe
atom 4.3049998283386230 7.1750001907348633 12.9149999618530273 Fe
atom 4.3049998283386230 7.1750001907348633 15.7849998474121094 Fe
atom 5.3049998283386230 10.0450000762939453 1.4349999427795410 Fe
atom 5.3049998283386230 10.0450000762939453 4.3049998283386230 Fe
atom 5.3049998283386230 10.0450000762939453 7.1750001907348633 Fe
atom 4.3049998283386230 10.0450000762939453 10.0450000762939453 Fe
atom 4.3049998283386230 10.0450000762939453 12.9149999618530273 Fe
atom 4.3049998283386230 10.0450000762939453 15.7849998474121094 Fe
atom 5.3049998283386230 12.9149999618530273 1.4349999427795410 Fe
atom 5.3049998283386230 12.9149999618530273 4.3049998283386230 Fe
atom 5.3049998283386230 12.9149999618530273 7.1750001907348633 Fe
atom 4.3049998283386230 12.9149999618530273 10.0450000762939453 Fe
atom 4.3049998283386230 12.9149999618530273 12.9149999618530273 Fe
atom 4.3049998283386230 12.9149999618530273 15.7849998474121094 Fe
atom 5.3049998283386230 15.7849998474121094 1.4349999427795410 Fe
atom 5.3049998283386230 15.7849998474121094 4.3049998283386230 Fe
atom 5.3049998283386230 15.7849998474121094 7.1750001907348633 Fe
atom 4.3049998283386230 15.7849998474121094 10.0450000762939453 Fe
atom 4.3049998283386230 15.7849998474121094 12.9149999618530273 Fe
atom 4.3049998283386230 15.7849998474121094 15.7849998474121094 Fe
atom 8.4750003814697266 1.4349999427795410 1.4349999427795410 Fe
atom 8.4750003814697266 1.4349999427795410 4.3049998283386230 Fe
atom 8.4750003814697266 1.4349999427795410 7.1750001907348633 Fe
atom 7.1750001907348633 1.4349999427795410 10.0450000762939453 Fe
atom 7.1750001907348633 1.4349999427795410 12.9149999618530273 Fe
atom 7.1750001907348633 1.4349999427795410 15.7849998474121094 Fe
atom 8.4750003814697266 4.3049998283386230 1.4349999427795410 Fe
atom 8.4750003814697266 4.3049998283386230 4.3049998283386230 Fe
atom 8.4750003814697266 4.3049998283386230 7.1750001907348633 Fe
atom 7.1750001907348633 4.3049998283386230 10.0450000762939453 Fe
atom 7.1750001907348633 4.3049998283386230 12.9149999618530273 Fe
atom 7.1750001907348633 4.3049998283386230 15.7849998474121094 Fe
atom 8.4750003814697266 7.1750001907348633 1.4349999427795410 Fe
atom 8.4750003814697266 7.1750001907348633 4.3049998283386230 Fe
atom 8.4750003814697266 7.1750001907348633 7.1750001907348633 Fe
atom 7.1750001907348633 7.1750001907348633 10.0450000762939453 Fe
atom 7.1750001907348633 7.1750001907348633 12.9149999618530273 Fe
atom 7.1750001907348633 7.1750001907348633 15.7849998474121094 Fe
atom 8.4750003814697266 10.0450000762939453 1.4349999427795410 Fe
atom 8.4750003814697266 10.0450000762939453 4.3049998283386230 Fe
atom 8.4750003814697266 10.0450000762939453 7.1750001907348633 Fe
atom 7.1750001907348633 10.0450000762939453 10.0450000762939453 Fe
atom 7.1750001907348633 10.0450000762939453 12.9149999618530273 Fe
atom 7.1750001907348633 10.0450000762939453 15.7849998474121094 Fe
atom 8.4750003814697266 12.9149999618530273 1.4349999427795410 Fe
atom 8.4750003814697266 12.9149999618530273 4.3049998283386230 Fe
atom 8.4750003814697266 12.9149999618530273 7.1750001907348633 Fe
atom 7.1750001907348633 12.9149999618530273 10.0450000762939453 Fe
atom 7.1750001907348633 12.9149999618530273 12.9149999618530273 Fe
atom 7.1750001907348633 12.9149999618530273 15.7849998474121094 Fe
atom 8.4750003814697266 15.7849998474121094 1.4349999427795410 Fe
atom 8.4750003814697266 15.7849998474121094 4.3049998283386230 Fe
atom 8.4750003814697266 15.7849998474121094 7.1750001907348633 Fe
atom 7.1750001907348633 15.7849998474121094 10.0450000762939453 Fe
atom 7.1750001907348633 15.7849998474121094 12.9149999618530273 Fe
atom 7.1750001907348633 15.7849998474121094 15.7849998474121094 Fe
atom 10.0450000762939453 1.4349999427795410 10.0450000762939453 Fe
atom 10.0450000762939453 1.4349999427795410 12.9149999618530273 Fe
atom 10.0450000762939453 1.4349999427795410 15.7849998474121094 Fe
atom 10.0450000762939453 4.3049998283386230 10.0450000762939453 Fe
atom 10.0450000762939453 4.3049998283386230 12.9149999618530273 Fe
atom 10.0450000762939453 4.3049998283386230 15.7849998474121094 Fe
atom 10.0450000762939453 7.1750001907348633 10.0450000762939453 Fe
atom 10.0450000762939453 7.1750001907348633 12.9149999618530273 Fe
atom 10.0450000762939453 7.1750001907348633 15.7849998474121094 Fe
atom 10.0450000762939453 10.0450000762939453 10.0450000762939453 Fe
atom 10.0450000762939453 10.0450000762939453 12.9149999618530273 Fe
atom 10.0450000762939453 10.0450000762939453 15.7849998474121094 Fe
atom 10.0450000762939453 12.9149999618530273 10.0450000762939453 Fe
atom 10.0450000762939453 12.9149999618530273 12.9149999618530273 Fe
atom 10.0450000762939453 12.9149999618530273 15.7849998474121094 Fe
atom 10.0450000762939453 15.7849998474121094 10.0450000762939453 Fe
atom 10.0450000762939453 15.7849998474121094 12.9149999618530273 Fe
atom 10.0450000762939453 15.7849998474121094 15.7849998474121094 Fe
atom 11.6149997711181641 1.4349999427795410 1.4349999427795410 Fe
atom 11.6149997711181641 1.4349999427795410 4.3049998283386230 Fe
atom 11.6149997711181641 1.4349999427795410 7.1750001907348633 Fe
atom 12.9149999618530273 1.4349999427795410 10.0450000762939453 Fe
atom 12.9149999618530273 1.4349999427795410 12.9149999618530273 Fe
atom 12.9149999618530273 1.4349999427795410 15.7849998474121094 Fe
atom 11.6149997711181641 4.3049998283386230 1.4349999427795410 Fe
atom 11.6149997711181641 4.3049998283386230 4.3049998283386230 Fe
atom 11.6149997711181641 4.3049998283386230 7.1750001907348633 Fe
atom 12.9149999618530273 4.3049998283386230 10.0450000762939453 Fe
atom 12.9149999618530273 4.3049998283386230 12.9149999618530273 Fe
atom 12.9149999618530273 4.3049998283386230 15.7849998474121094 Fe
atom 11.6149997711181641 7.1750001907348633 1.4349999427795410 Fe
atom 11.6149997711181641 7.1750001907348633 4.3049998283386230 Fe
atom 11.6149997711181641 7.1750001907348633 7.1750001907348633 Fe
atom 12.9149999618530273 7.1750001907348633 10.0450000762939453 Fe
atom 12.9149999618530273 7.1750001907348633 12.9149999618530273 Fe
atom 12.9149999618530273 7.1750001907348633 15.7849998474121094 Fe
atom 11.6149997711181641 10.0450000762939453 1.4349999427795410 Fe
atom 11.6149997711181641 10.0450000762939453 4.3049998283386230 Fe
atom 11.6149997711181641 10.0450000762939453 7.1750001907348633 Fe
atom 12.9149999618530273 10.0450000762939453 10.0450000762939453 Fe
atom 12.9149999618530273 10.0450000762939453 12.9149999618530273 Fe
atom 12.9149999618530273 10.0450000762939453 15.7849998474121094 Fe
atom 11.6149997711181641 12.9149999618530273 1.4349999427795410 Fe
atom 11.6149997711181641 12.9149999618530273 4.3049998283386230 Fe
atom 11.6149997711181641 12.9149999618530273 7.1750001907348633 Fe
atom 12.9149999618530273 12.9149999618530273 10.0450000762939453 Fe
atom 12.9149999618530273 12.9149999618530273 12.9149999618530273 Fe
atom 12.9149999618530273 12.9149999618530273 15.7849998474121094 Fe
atom 11.6149997711181641 15.7849998474121094 1.4349999427795410 Fe
atom 11.6149997711181641 15.7849998474121094 4.3049998283386230 Fe
atom 11.6149997711181641 15.7849998474121094 7.1750001907348633 Fe
atom 12.9149999618530273 15.7849998474121094 10.0450000762939453 Fe
atom 12.9149999618530273 15.7849998474121094 12.9149999618530273 Fe
atom 12.9149999618530273 15.7849998474121094 15.7849998474121094 Fe
atom 14.7849998474121094 1.4349999427795410 1.4349999427795410 Fe
atom 14.7849998474121094 1.4349999427795410 4.3049998283386230 Fe
atom 14.7849998474121094 1.4349999427795410 7.1750001907348633 Fe
atom 15.7849998474121094 1.4349999427795410 10.0450000762939453 Fe
atom 15.7849998474121094 1.4349999427795410 12.9149999618530273 Fe
atom 15.7849998474121094 1.4349999427795410 15.7849998474121094 Fe
atom 14.7849998474121094 4.3049998283386230 1.4349999427795410 Fe
atom 14.7849998474121094 4.3049998283386230 4.3049998283386230 Fe
atom 14.7849998474121094 4.3049998283386230 7.1750001907348633 Fe
atom 15.7849998474121094 4.3049998283386230 10.0450000762939453 Fe
atom 15.7849998474121094 4.3049998283386230 12.9149999618530273 Fe
atom 15.7849998474121094 4.3049998283386230 15.7849998474121094 Fe
atom 14.7849998474121094 7.1750001907348633 1.4349999427795410 Fe
atom 14.7849998474121094 7.1750001907348633 4.3049998283386230 Fe
atom 14.7849998474121094 7.1750001907348633 7.1750001907348633 Fe
atom 15.7849998474121094 7.1750001907348633 10.0450000762939453 Fe
atom 15.7849998474121094 7.1750001907348633 12.9149999618530273 Fe
atom 15.7849998474121094 7.1750001907348633 15.7849998474121094 Fe
atom 14.7849998474121094 10.0450000762939453 1.4349999427795410 Fe
atom 14.7849998474121094 10.0450000762939453 4.3049998283386230 Fe
atom 14.7849998474121094 10.0450000762939453 7.1750001907348633 Fe
atom 15.7849998474121094 10.0450000762939453 10.0450000762939453 Fe
atom 15.7849998474121094 10.0450000762939453 12.9149999618530273 Fe
atom 15.7849998474121094 10.0450000762939453 15.7849998474121094 Fe
atom 14.7849998474121094 12.9149999618530273 1.4349999427795410 Fe
atom 14.7849998474121094 12.9149999618530273 4.3049998283386230 Fe
atom 14.7849998474121094 12.9149999618530273 7.1750001907348633 Fe
atom 15.7849998474121094 12.9149999618530273 10.0450000762939453 Fe
atom 15.7849998474121094 12.9149999618530273 12.9149999618530273 Fe
atom 15.7849998474121094 12.9149999618530273 15.7849998474121094 Fe
atom 14.7849998474121094 15.7849998474121094 1.4349999427795410 Fe
atom 14.7849998474121094 15.7849998474121094 4.3049998283386230 Fe
atom 14.7849998474121094 15.7849998474121094 7.1750001907348633 Fe
atom 15.7849998474121094 15.7849998474121094 10.0450000762939453 Fe
atom 15.7849998474121094 15.7849998474121094 12.9149999618530273 Fe
atom 15.7849998474121094 15.7849998474121094 15.7849998474121094 Fe
atom 17.6550006866455078 1.4349999427795410 1.4349999427795410 Fe
atom 17.6550006866455078 1.4349999427795410 4.3049998283386230 Fe
atom 17.6550006866455078 1.4349999427795410 7.1750001907348633 Fe
atom 18.6550006866455078 1.4349999427795410 10.0450000762939453 Fe
atom 18.6550006866455078 1.4349999427795410 12.9149999618530273 Fe
atom 18.6550006866455078 1.4349999427795410 15.7849998474121094 Fe
atom 17.6550006866455078 4.3049998283386230 1.4349999427795410 Fe
atom 17.6550006866455078 4.3049998283386230 4.3049998283386230 Fe
atom 17.6550006866455078 4.3049998283386230 7.1750001907348633 Fe
atom 18.6550006866455078 4.3049998283386230 10.0450000762939453 Fe
atom 18.6550006866455078 4.3049998283386230 12.9149999618530273 Fe
atom 18.6550006866455078 4.3049998283386230 15.7849998474121094 Fe
atom 17.6550006866455078 7.1750001907348633 1.4349999427795410 Fe
atom 17.6550006866455078 7.1750001907348633 4.3049998283386230 Fe
atom 17.6550006866455078 7.1750001907348633 7.1750001907348633 Fe
atom 18.6550006866455078 7.1750001907348633 10.0450000762939453 Fe
atom 18.6550006866455078 7.1750001907348633 12.9149999618530273 Fe
atom 18.6550006866455078 7.1750001907348633 15.7849998474121094 Fe
atom 17.6550006866455078 10.0450000762939453 1.4349999427795410 Fe
atom 17.6550006866455078 10.0450000762939453 4.3049998283386230 Fe
atom 17.6550006866455078 10.0450000762939453 7.1750001907348633 Fe
atom 18.6550006866455078 10.0450000762939453 10.0450000762939453 Fe
atom 18.6550006866455078 10.0450000762939453 12.9149999618530273 Fe
atom 18.6550006866455078 10.0450000762939453 15.7849998474121094 Fe
atom 17.6550006866455078 12.9149999618530273 1.4349999427795410 Fe
atom 17.6550006866455078 12.9149999618530273 4.3049998283386230 Fe
atom 17.6550006866455078 12.9149999618530273 7.1750001907348633 Fe
atom 18.6550006866455078 12.9149999618530273 10.0450000762939453 Fe
atom 18.6550006866455078 12.9149999618530273 12.9149999618530273 Fe
atom 18.6550006866455078 12.9149999618530273 15.7849998474121094 Fe
atom 17.6550006866455078 15.7849998474121094 1.4349999427795410 Fe
atom 17.6550006866455078 15.7849998474121094 4.3049998283386230 Fe
atom 17.6550006866455078 15.7849998474121094 7.1750001907348633 Fe
atom 18.6550006866455078 15.7849998474121094 10.0450000762939453 Fe
atom 18.6550006866455078 15.7849998474121094 12.9149999618530273 Fe
atom 18.6550006866455078 15.7849998474121094 15.7849998474121094 Fe
