#=======================================================
# FHI-aims file: ./ot-dzvp-300-dkp.in
# Created using the Atomic Simulation Environment (ASE)
# Thu Aug  5 08:08:08 2021
#=======================================================
lattice_vector 20.0000000000000000 0.0000000000000000 0.0000000000000000 
lattice_vector 0.0000000000000000 20.0000000000000000 0.0000000000000000 
lattice_vector 0.0000000000000000 0.0000000000000000 20.0000000000000000 
atom 0.6935146965000000 -0.0000723493000000 0.0000896939000000 C
atom -0.6935224725000000 -0.0000844796000000 -0.0000881285000000 C
atom 1.4298351060000001 1.2586683308000000 -0.0000737956000000 C
atom -1.4298635488000000 1.2586401752000000 0.0000726134000000 C
atom 1.4298730223000000 -1.2587929999000000 -0.0000478295000000 C
atom -1.4298613164000000 -1.2588208060999999 0.0000522793000000 C
atom 0.6772517941000000 2.4950707070000000 0.0000195783000000 C
atom -0.6773004068000000 2.4950522400000001 -0.0000226346000000 C
atom 0.6772941116000000 -2.4951928801999999 0.0000406254000000 C
atom -0.6772596683000000 -2.4952098804000000 -0.0000372927000000 C
atom 2.8017354865000001 1.2458873955000000 0.0000048294000000 C
atom -2.8017602749999999 1.2458391195000000 -0.0000122227000000 C
atom 2.8017770445000001 -1.2459937706999999 0.0000593683000000 C
atom -2.8017693793000000 -1.2460362903000000 -0.0000575167000000 C
atom 3.5674732958000002 -0.0000366111000000 -0.0000420719000000 C
atom -3.5674878853999998 -0.0000841877000000 0.0000439515000000 C
atom 1.2361741682000000 3.4320262322000001 -0.0000223252000000 H
atom -1.2362445924000001 3.4319948737999999 0.0000185308000000 H
atom 1.2362298786999999 -3.4321414932000001 0.0000167187000000 H
atom -1.2361719830000000 -3.4321724312000002 -0.0000145319000000 H
atom 3.3772568434000001 2.1728237574999998 -0.0000631239000000 H
atom -3.3772912272000002 2.1727699110000001 0.0000501060000000 H
atom 3.3772855814999998 -2.1729406315999999 0.0000502061000000 H
atom -3.3772653340000001 -2.1729911037999998 -0.0000445989000000 H
atom 4.8154630238999996 0.0000037110000000 0.0000302720000000 O
atom -4.8154791743000001 -0.0000156180000000 -0.0000322942000000 O
