#=======================================================
# FHI-aims file: pt.in
# Created using the Atomic Simulation Environment (ASE)
# Wed Feb 26 08:13:09 2020
#=======================================================
lattice_vector 0.0000000000000000 1.9600000000000000 1.9600000000000000 
lattice_vector 1.9600000000000000 0.0000000000000000 1.9600000000000000 
lattice_vector 1.9600000000000000 1.9600000000000000 0.0000000000000000 
atom 0.0000000000000000 0.0000000000000000 0.0000000000000000 Pt
