#=======================================================
# FHI-aims file: zsm.in
# Created using the Atomic Simulation Environment (ASE)
# Mon Oct 18 07:05:30 2021
#=======================================================
lattice_vector 19.8789997100830078 0.0000000000000000 0.0000000000000000 
lattice_vector 0.0000000000000000 20.1070003509521484 0.0000000000000000 
lattice_vector -0.1563295871019363 0.0000000000000000 13.3680858612060547 
atom 1.0468543767929077 7.5984354019165039 10.4351282119750977 O
atom 18.5976505279541016 17.6519355773925781 9.6170005798339844 O
atom 18.6758155822753906 12.5085649490356445 2.9329581260681152 O
atom 1.1250190734863281 2.4550647735595703 3.7510848045349121 O
atom 1.1684771776199341 6.2452340126037598 12.6141262054443359 O
atom 18.4760284423828125 16.2987346649169922 7.4380030632019043 O
atom 18.5541934967041016 13.8617658615112305 0.7539600729942322 O
atom 1.2466419935226440 3.8082656860351562 5.9300827980041504 O
atom 0.9310194849967957 4.0575923919677734 0.6216160058975220 O
atom 18.8698158264160156 14.1110925674438477 6.0624270439147949 O
atom 18.7916507720947266 16.0494079589843750 12.7464694976806641 O
atom 0.8528546690940857 5.9959073066711426 7.3056588172912598 O
atom 1.1898075342178345 2.0750424861907959 12.3200283050537109 O
atom 18.4546985626220703 12.1285419464111328 7.7321009635925293 O
atom 18.5328636169433594 18.0319576263427734 1.0480579137802124 O
atom 1.2679723501205444 7.9784574508666992 5.6359848976135254 O
atom 0.7664096951484680 2.4731609821319580 9.7680606842041016 O
atom 18.8780956268310547 12.5266609191894531 10.2840681076049805 O
atom 18.9562606811523438 17.6338386535644531 3.6000256538391113 O
atom 0.8445744514465332 7.5803389549255371 3.0840175151824951 O
atom 0.8270416259765625 4.9925680160522461 10.3629398345947266 O
atom 18.8174648284912109 15.0460681915283203 9.6891889572143555 O
atom 18.8956279754638672 15.1144323348999023 3.0051457881927490 O
atom 0.9052063822746277 5.0609316825866699 3.6788971424102783 O
atom 16.7110042572021484 7.5783281326293945 10.3081312179565430 O
atom 2.9335019588470459 17.6318283081054688 9.7439975738525391 O
atom 3.0116667747497559 12.5286712646484375 3.0599548816680908 O
atom 16.7891674041748047 2.4751718044281006 3.6240880489349365 O
atom 16.4161987304687500 6.1326351165771484 12.3989000320434570 O
atom 3.2283062934875488 16.1861343383789062 7.6532292366027832 O
atom 3.3064711093902588 13.9743652343750000 0.9691862463951111 O
atom 16.4943637847900391 3.9208650588989258 5.7148566246032715 O
atom 16.7769126892089844 3.9409720897674561 0.4224315285682678 O
atom 3.0239233970642090 13.9944715499877930 6.2616114616394043 O
atom 2.9457585811614990 16.1660270690917969 12.9456548690795898 O
atom 16.6987476348876953 6.1125278472900391 7.1064743995666504 O
atom 16.3768787384033203 1.7794694900512695 12.3614692687988281 O
atom 3.2676267623901367 11.8329696655273438 7.6906599998474121 O
atom 3.3457915782928467 18.3275299072265625 1.0066168308258057 O
atom 16.4550437927246094 8.2740306854248047 5.6774263381958008 O
atom 16.7600688934326172 2.4289255142211914 9.8522796630859375 O
atom 2.8844373226165771 12.4824256896972656 10.1998491287231445 O
atom 2.9626021385192871 17.6780738830566406 3.5158066749572754 O
atom 16.8382320404052734 7.6245741844177246 3.1682362556457520 O
atom 17.0252151489257812 4.9925680160522461 10.1276617050170898 O
atom 2.6192913055419922 15.0460681915283203 9.9244670867919922 O
atom 2.6974561214447021 15.1144323348999023 3.2404239177703857 O
atom 17.1033782958984375 5.0609316825866699 3.4436190128326416 O
atom 18.7818317413330078 6.4121222496032715 11.3762407302856445 O
atom 0.8626735806465149 16.4656219482421875 8.6758880615234375 O
atom 0.9408383965492249 13.6948776245117188 1.9918447732925415 O
atom 18.8599967956542969 3.6413776874542236 4.6921982765197754 O
atom 18.7347316741943359 1.5703567266464233 11.3241052627563477 O
atom 0.9097735285758972 11.6238565444946289 8.7280235290527344 O
atom 0.9879382848739624 18.5366439819335938 2.0439803600311279 O
atom 18.8128967285156250 8.4831428527832031 4.6400628089904785 O
atom 2.3934609889984131 8.3343515396118164 8.3269805908203125 O
atom 17.2510452270507812 18.3878517150878906 11.7251482009887695 O
atom 17.3292102813720703 11.7726488113403320 5.0411052703857422 O
atom 2.4716258049011230 1.7191485166549683 1.6429377794265747 O
atom 19.7020092010498047 7.8879761695861816 8.1652269363403320 O
atom -0.0575043745338917 17.9414768218994141 11.8869018554687500 O
atom 0.0206604227423668 12.2190237045288086 5.2028589248657227 O
atom 19.7801742553710938 2.1655240058898926 1.4811838865280151 O
atom 17.1243247985839844 8.0870351791381836 7.7722053527832031 O
atom 2.5201816558837891 18.1405353546142578 12.2799234390258789 O
atom 2.5983464717864990 12.0199642181396484 5.5958809852600098 O
atom 17.2024879455566406 1.9664646387100220 1.0881621837615967 O
atom 2.4799776077270508 4.0274319648742676 8.5783004760742188 O
atom 17.1645278930664062 14.0809316635131836 11.4738283157348633 O
atom 17.2426929473876953 16.0795669555664062 4.7897853851318359 O
atom 2.5581421852111816 6.0260677337646484 1.8942577838897705 O
atom -0.0419872924685478 4.2204594612121582 8.0101566314697266 O
atom 19.6864929199218750 14.2739591598510742 12.0419721603393555 O
atom 19.7646579742431641 15.8865404129028320 5.3579287528991699 O
atom 0.0361775048077106 5.8330407142639160 1.3261141777038574 O
atom 17.2535686492919922 3.9168436527252197 7.7695317268371582 O
atom 2.3909368515014648 13.9703435897827148 12.2825975418090820 O
atom 2.4691016674041748 16.1901569366455078 5.5985546112060547 O
atom 17.3317337036132812 6.1366562843322754 1.0854885578155518 O
atom 0.8993457555770874 0.0643424019217491 10.6396598815917969 O
atom 18.7451591491699219 10.1178426742553711 9.4124689102172852 O
atom 18.8233242034912109 20.0426578521728516 2.7284264564514160 O
atom 0.9775105714797974 9.9891576766967773 3.9556167125701904 O
atom 16.8233165740966797 20.0607547760009766 10.5634613037109375 O
atom 2.8211896419525146 10.0072536468505859 9.4886674880981445 O
atom 2.8993544578552246 0.0462461002171040 2.8046243190765381 O
atom 16.9014797210693359 10.0997457504272461 3.8794186115264893 O
atom 14.8042879104614258 8.5233573913574219 8.8055582046508789 O
atom 4.8402175903320312 18.5768566131591797 11.2465705871582031 O
atom 4.9183826446533203 11.5836429595947266 4.5625276565551758 O
atom 14.8824529647827148 1.5301426649093628 2.1215152740478516 O
atom 14.9345979690551758 3.9952609539031982 8.8817567825317383 O
atom 4.7099075317382812 14.0487613677978516 11.1703729629516602 O
atom 4.7880721092224121 16.1117382049560547 4.4863295555114746 O
atom 15.0127630233764648 6.0582389831542969 2.1977133750915527 O
atom 14.8489847183227539 5.6741952896118164 0.9036825895309448 O
atom 4.9518504142761230 15.7276954650878906 5.7803602218627930 O
atom 4.8736858367919922 14.4328050613403320 12.4644031524658203 O
atom 14.7708196640014648 4.3793044090270996 7.5877256393432617 O
atom 14.8466682434082031 2.2137806415557861 0.9317556023597717 O
atom 4.9541668891906738 12.2672805786132812 5.7522873878479004 O
atom 4.8760018348693848 17.8932189941406250 12.4363307952880859 O
atom 14.7685031890869141 7.8397192955017090 7.6157984733581543 O
atom 8.8328285217285156 7.6386494636535645 10.1490507125854492 O
atom 10.8116769790649414 17.6921501159667969 9.9030780792236328 O
atom 10.8898420333862305 12.4683504104614258 3.2190351486206055 O
atom 8.9109926223754883 2.4148507118225098 3.4650077819824219 O
atom 8.7612495422363281 6.3196301460266113 12.3601322174072266 O
atom 10.8832559585571289 16.3731307983398438 7.6919965744018555 O
atom 10.9614210128784180 13.7873697280883789 1.0079536437988281 O
atom 8.8394145965576172 3.7338697910308838 5.6760892868041992 O
atom 8.5822830200195312 4.0033035278320312 0.1256600022315979 O
atom 11.2185525894165039 14.0568037033081055 6.5583829879760742 O
atom 11.1403875350952148 16.1036968231201172 13.2424259185791016 O
atom 8.5041179656982422 6.0501961708068848 6.8097028732299805 O
atom 8.7559452056884766 1.6326884031295776 12.4737606048583984 O
atom 10.8885602951049805 11.6861886978149414 7.5783677101135254 O
atom 10.9667253494262695 18.4743118286132812 0.8943249583244324 O
atom 8.8341102600097656 8.4208116531372070 5.7897181510925293 O
atom 8.5325279235839844 2.4249041080474854 9.9899702072143555 O
atom 11.1119775772094727 12.4784040451049805 10.0621585845947266 O
atom 11.1901426315307617 17.6820964813232422 3.3781154155731201 O
atom 8.6106929779052734 7.6285958290100098 3.3059277534484863 O
atom 8.6307344436645508 5.0368037223815918 10.0915679931640625 O
atom 11.0137710571289062 15.0903034210205078 9.9605607986450195 O
atom 11.0919361114501953 15.0701961517333984 3.2765178680419922 O
atom 8.7088994979858398 5.0166964530944824 3.4075250625610352 O
atom 12.9778394699096680 7.6346278190612793 10.4685478210449219 O
atom 6.6666665077209473 17.6881275177001953 9.5835809707641602 O
atom 6.7448310852050781 12.4723720550537109 2.8995378017425537 O
atom 13.0560045242309570 2.4188721179962158 3.7845051288604736 O
atom 12.6914577484130859 6.3296837806701660 12.6889867782592773 O
atom 6.9530477523803711 16.3831844329833984 7.3631415367126465 O
atom 7.0312123298645020 13.7773160934448242 0.6790987849235535 O
atom 12.7696228027343750 3.7238163948059082 6.0049443244934082 O
atom 12.9429721832275391 3.9429826736450195 0.3609383106231689 O
atom 6.8578634262084961 13.9964828491210938 6.3231048583984375 O
atom 6.7796983718872070 16.1640167236328125 13.0071477890014648 O
atom 12.8648071289062500 6.1105175018310547 7.0449814796447754 O
atom 12.8925151824951172 1.6527954339981079 12.4951496124267578 O
atom 6.7519907951354980 11.7062950134277344 7.5569791793823242 O
atom 6.8301553726196289 18.4542045593261719 0.8729360103607178 O
atom 12.9706792831420898 8.4007043838500977 5.8111071586608887 O
atom 13.1580114364624023 2.4771823883056641 10.0207176208496094 O
atom 6.4864940643310547 12.5306825637817383 10.0314121246337891 O
atom 6.5646586418151855 17.6298179626464844 3.3473687171936035 O
atom 13.2361764907836914 7.5763177871704102 3.3366742134094238 O
atom 13.1841897964477539 5.0207180976867676 10.5019683837890625 O
atom 6.4603157043457031 15.0742177963256836 9.5501604080200195 O
atom 6.5384802818298340 15.0862817764282227 2.8661177158355713 O
atom 13.2623548507690430 5.0327820777893066 3.8179254531860352 O
atom 10.8666629791259766 6.1406779289245605 10.8107709884643555 O
atom 8.7778425216674805 16.1941776275634766 9.2413578033447266 O
atom 8.8560075759887695 13.9663219451904297 2.5573148727416992 O
atom 10.9448280334472656 3.9128222465515137 4.1267280578613281 O
atom 10.8435611724853516 1.7111057043075562 10.9163789749145508 O
atom 8.8009443283081055 11.7646055221557617 9.1357498168945312 O
atom 8.8791093826293945 18.3958950042724609 2.4517068862915039 O
atom 10.9217262268066406 8.3423938751220703 4.2323360443115234 O
atom 7.2874650955200195 8.4167900085449219 8.1745843887329102 O
atom 12.3570404052734375 18.4702911376953125 11.8775444030761719 O
atom 12.4352054595947266 11.6902093887329102 5.1935014724731445 O
atom 7.3656296730041504 1.6367098093032837 1.4905415773391724 O
atom 9.8776311874389648 8.3524475097656250 7.8403825759887695 O
atom 9.7668743133544922 18.4059486389160156 12.2117462158203125 O
atom 9.8450393676757812 11.7545518875122070 5.5277037620544434 O
atom 9.9557962417602539 1.7010521888732910 1.1563394069671631 O
atom 12.4710903167724609 7.9181365966796875 7.9045491218566895 O
atom 7.1734151840209961 17.9716358184814453 12.1475801467895508 O
atom 7.2515802383422852 12.1888637542724609 5.4635367393493652 O
atom 12.5492553710937500 2.1353633403778076 1.2205061912536621 O
atom 7.2809071540832520 3.8203299045562744 8.2253837585449219 O
atom 12.3635978698730469 13.8738298416137695 11.8267459869384766 O
atom 12.4417629241943359 16.2866706848144531 5.1427025794982910 O
atom 7.3590722084045410 6.2331700325012207 1.5413403511047363 O
atom 9.9071731567382812 3.7439234256744385 8.2039947509765625 O
atom 9.7373323440551758 13.7974233627319336 11.8481349945068359 O
atom 9.8154973983764648 16.3630771636962891 5.1640915870666504 O
atom 9.9853382110595703 6.3095765113830566 1.5199513435363770 O
atom 12.4803133010864258 4.1701917648315430 8.1358175277709961 O
atom 7.1641921997070312 14.2236919403076172 11.9163122177124023 O
atom 7.2423572540283203 15.9368085861206055 5.2322688102722168 O
atom 12.5584783554077148 5.8833084106445312 1.4517741203308105 O
atom 8.9731922149658203 20.0285835266113281 10.5554409027099609 O
atom 10.6713132858276367 9.9750823974609375 9.4966878890991211 O
atom 10.7494773864746094 0.0784173011779785 2.8126451969146729 O
atom 9.0513572692871094 10.1319169998168945 3.8713977336883545 O
atom 12.7603921890258789 20.0808601379394531 10.5340518951416016 O
atom 6.8841133117675781 10.0273609161376953 9.5180768966674805 O
atom 6.9622783660888672 0.0261390991508961 2.8340342044830322 O
atom 12.8385572433471680 10.0796394348144531 3.8500087261199951 O
atom 0.9961695671081543 8.4561996459960938 9.0916357040405273 Si
atom 18.6483364105224609 18.5097007751464844 10.9604940414428711 Si
atom 18.7265014648437500 11.6507997512817383 4.2764506340026855 Si
atom 1.0743343830108643 1.5973000526428223 2.4075922966003418 Si
atom 0.4835039079189301 6.3071637153625488 11.1813344955444336 Si
atom 19.1610012054443359 16.3606643676757812 8.8707942962646484 Si
atom 19.2391662597656250 13.7998361587524414 2.1867516040802002 Si
atom 0.5616686940193176 3.7463362216949463 4.4972915649414062 Si
atom 1.2338813543319702 5.6219172477722168 0.7146579027175903 Si
atom 18.5669536590576172 15.6754169464111328 5.9693851470947266 Si
atom 18.4887886047363281 14.4850826263427734 12.6534280776977539 Si
atom 1.1557165384292603 4.4315829277038574 7.3987007141113281 Si
atom 1.2333145141601562 2.4922626018524170 0.4911434650421143 Si
atom 18.5675201416015625 12.5457630157470703 6.1928997039794922 Si
atom 18.4893550872802734 17.6147365570068359 12.8769426345825195 Si
atom 1.1551496982574463 7.5612373352050781 7.1751866340637207 Si
atom 0.4257729649543762 1.5438154935836792 11.2563295364379883 Si
atom 19.2187328338623047 11.5973157882690430 8.7957992553710938 Si
atom 19.2968978881835938 18.5631847381591797 2.1117565631866455 Si
atom 0.5039377212524414 8.5096845626831055 4.5722866058349609 Si
atom 1.0028921365737915 3.9321248531341553 9.1797313690185547 Si
atom 18.6416130065917969 13.9856252670288086 10.8723983764648438 Si
atom 18.7197780609130859 16.1748752593994141 4.1883549690246582 Si
atom 1.0810569524765015 6.1213750839233398 2.4956879615783691 Si
atom 16.3637351989746094 8.5539197921752930 9.0996561050415039 Si
atom 3.2807700634002686 18.6074199676513672 10.9524726867675781 Si
atom 3.3589348793029785 11.5530796051025391 4.2684297561645508 Si
atom 16.4419002532958984 1.4995800256729126 2.4156131744384766 Si
atom 17.2345638275146484 6.2784109115600586 11.0436429977416992 Si
atom 2.4099423885345459 16.3319110870361328 9.0084857940673828 Si
atom 2.4881072044372559 13.8285894393920898 2.3244428634643555 Si
atom 17.3127269744873047 3.7750892639160156 4.3596000671386719 Si
atom 16.3766613006591797 5.4942378997802734 0.4808500409126282 Si
atom 3.4241745471954346 15.5477380752563477 6.2031927108764648 Si
atom 3.3460097312927246 14.6127624511718750 12.8872356414794922 Si
atom 16.2984962463378906 4.5592622756958008 7.1648931503295898 Si
atom 16.3681659698486328 2.3917276859283447 0.4593274295330048 Si
atom 3.4326696395874023 12.4452276229858398 6.2247157096862793 Si
atom 3.3545048236846924 17.7152729034423828 12.9087581634521484 Si
atom 16.2900009155273438 7.6617722511291504 7.1433706283569336 Si
atom 17.1779098510742188 1.4388569593429565 11.0265321731567383 Si
atom 2.4665963649749756 11.4923572540283203 9.0255966186523438 Si
atom 2.5447611808776855 18.6681423187255859 2.3415539264678955 Si
atom 17.2560749053955078 8.6146430969238281 4.3424892425537109 Si
atom 16.4861698150634766 3.8362145423889160 9.1694374084472656 Si
atom 3.1583364009857178 13.8897142410278320 10.8826913833618164 Si
atom 3.2365012168884277 16.2707862854003906 4.1986484527587891 Si
atom 16.5643348693847656 6.2172856330871582 2.4853944778442383 Si
atom 8.7017726898193359 8.6132354736328125 8.8956594467163086 Si
atom 10.9427328109741211 18.6667346954345703 11.1564693450927734 Si
atom 11.0208978652954102 11.4937648773193359 4.4724268913269043 Si
atom 8.7799377441406250 1.4402644634246826 2.2116160392761230 Si
atom 9.2768430709838867 6.2808237075805664 10.8530139923095703 Si
atom 10.3676624298095703 16.3343238830566406 9.1991147994995117 Si
atom 10.4458274841308594 13.8261766433715820 2.5150716304779053 Si
atom 9.3550081253051758 3.7726764678955078 4.1689710617065430 Si
atom 8.7200984954833984 5.5704431533813477 0.3930217325687408 Si
atom 11.0807371139526367 15.6239433288574219 6.2910213470458984 Si
atom 11.0025720596313477 14.5365562438964844 12.9750642776489258 Si
atom 8.6419334411621094 4.4830565452575684 7.0770645141601562 Si
atom 8.6546049118041992 2.4440059661865234 0.4518412947654724 Si
atom 11.1462306976318359 12.4975061416625977 6.2322015762329102 Si
atom 11.0680656433105469 17.6629943847656250 12.9162445068359375 Si
atom 8.5764398574829102 7.6094942092895508 7.1358842849731445 Si
atom 9.2773151397705078 1.4267927408218384 10.9826850891113281 Si
atom 10.3671913146972656 11.4802923202514648 9.0694446563720703 Si
atom 10.4453554153442383 18.6802082061767578 2.3854012489318848 Si
atom 9.3554792404174805 8.6267070770263672 4.2986416816711426 Si
atom 8.5959224700927734 3.7674486637115479 9.1246547698974609 Si
atom 11.0485830307006836 13.8209486007690430 10.9274749755859375 Si
atom 11.1267480850219727 16.3395519256591797 4.2434315681457520 Si
atom 8.6740875244140625 6.2860512733459473 2.4406113624572754 Si
atom 13.2522678375244141 8.5231561660766602 9.1682348251342773 Si
atom 6.3922381401062012 18.5766563415527344 10.8838949203491211 Si
atom 6.4704027175903320 11.5838441848754883 4.1998515129089355 Si
atom 13.3304328918457031 1.5303437709808350 2.4841914176940918 Si
atom 12.4196023941040039 6.2890672683715820 11.1174354553222656 Si
atom 7.2249026298522949 16.3425674438476562 8.9346942901611328 Si
atom 7.3030676841735840 13.8179321289062500 2.2506508827209473 Si
atom 12.4977674484252930 3.7644324302673340 4.4333920478820801 Si
atom 13.2902574539184570 5.4916238784790039 0.6160014271736145 Si
atom 6.5105781555175781 15.5451240539550781 6.0680418014526367 Si
atom 6.4324135780334473 14.6153764724731445 12.7520847320556641 Si
atom 13.2120923995971680 4.5618762969970703 7.3000445365905762 Si
atom 13.3142747879028320 2.3860976696014404 0.5170775651931763 Si
atom 6.4865603446960449 12.4395980834960938 6.1669654846191406 Si
atom 6.4083957672119141 17.7209014892578125 12.8510084152221680 Si
atom 13.2361097335815430 7.6674022674560547 7.2011203765869141 Si
atom 12.4115009307861328 1.4613767862319946 10.9943151473999023 Si
atom 7.2330050468444824 11.5148763656616211 9.0578136444091797 Si
atom 7.3111696243286133 18.6456241607666016 2.3737709522247314 Si
atom 12.4896650314331055 8.5921230316162109 4.3102717399597168 Si
atom 13.4218750000000000 3.9100072383880615 9.3858671188354492 Si
atom 6.2226309776306152 13.9635076522827148 10.6662616729736328 Si
atom 6.3007955551147461 16.1969928741455078 3.9822192192077637 Si
atom 13.5000391006469727 6.1434926986694336 2.7018239498138428 Si
